1 -1 -2 0
1 1 -3 0
1 1 4 0
1 -5 -2 0
1 -5 1 0
1 -6 -7 0
1 -6 2 0
1 -6 8 0
1 -6 -9 0
1 -6 -10 0
1 -6 3 0
1 7 11 0
1 7 -2 0
1 7 8 0
1 -7 -9 0
1 7 10 0
1 7 6 0
1 7 3 0
1 7 4 0
1 -8 -12 0
1 8 -13 0
1 -8 7 0
1 -8 -5 0
1 -8 -14 0
1 8 -15 0
1 8 -4 0
1 -4 16 0
1 4 -17 0
1 -4 -13 0
1 -4 7 0
1 4 -5 0
1 4 18 0
1 4 15 0
1 4 1 0
1 2 17 0
1 -2 -5 0
1 2 -19 0
1 -2 18 0
1 -2 20 0
1 2 21 0
1 2 6 0
1 -2 1 0
1 -3 -17 0
1 -3 22 0
1 -3 -23 0
1 -3 5 0
1 3 -2 0
1 3 -18 0
1 3 -20 0
1 3 -1 0
1 -3 24 0
1 25 26 0
1 -25 -11 0
1 -25 -13 0
1 25 -8 0
1 25 -10 0
1 -25 21 0
1 25 4 0
1 -13 -26 0
1 -13 23 0
1 -13 -9 0
1 -13 10 0
1 15 -11 0
1 -15 -12 0
1 15 27 0
1 -15 28 0
1 -15 -8 0
1 15 -9 0
1 15 -10 0
1 15 -29 0
1 15 -4 0
1 12 11 0
1 12 22 0
1 -12 28 0
1 -12 9 0
1 12 -10 0
1 -12 30 0
1 12 29 0
1 -12 -4 0
1 10 31 0
1 10 32 0
1 10 -13 0
1 10 -7 0
1 -10 -33 0
1 -10 -34 0
1 10 35 0
1 10 -36 0
1 11 -12 0
1 11 7 0
1 11 33 0
1 -11 34 0
1 -11 10 0
1 -11 15 0
1 -11 -25 0
1 -11 -6 0
1 9 -37 0
1 9 -17 0
1 9 -33 0
1 9 18 0
1 9 25 0
1 -9 36 0
1 -26 -37 0
1 26 17 0
1 -26 12 0
1 26 -13 0
1 26 -33 0
1 -26 -9 0
1 -26 18 0
1 26 -15 0
1 26 -25 0
1 26 36 0
1 35 32 0
1 35 -11 0
1 35 -27 0
1 35 -30 0
1 -35 -29 0
1 -32 -11 0
1 -32 -17 0
1 -32 27 0
1 -32 28 0
1 32 -29 0
1 34 31 0
1 34 -28 0
1 -34 -10 0
1 -34 -29 0
1 31 37 0
1 31 11 0
1 31 -27 0
1 -31 28 0
1 -31 10 0
1 -31 30 0
1 29 -32 0
1 -29 -12 0
1 -29 -28 0
1 29 -34 0
1 29 15 0
1 28 -12 0
1 28 34 0
1 28 35 0
1 28 15 0
1 -28 -29 0
1 30 -31 0
1 30 -12 0
1 30 27 0
1 -30 -33 0
1 -30 -35 0
1 -30 -15 0
1 -30 38 0
1 30 36 0
1 -27 -31 0
1 -27 39 0
1 27 34 0
1 -27 35 0
1 27 30 0
1 -27 -38 0
1 -27 36 0
1 -21 40 0
1 -21 -23 0
1 21 41 0
1 21 -2 0
1 21 -42 0
1 21 -25 0
1 -23 -40 0
1 23 2 0
1 -23 -3 0
1 20 -22 0
1 -20 -40 0
1 20 41 0
1 -20 -43 0
1 -20 42 0
1 -20 44 0
1 -20 45 0
1 20 -3 0
1 -22 12 0
1 -22 40 0
1 22 43 0
1 -22 20 0
1 -22 -45 0
1 -22 -3 0
1 41 -44 0
1 -41 17 0
1 -41 -23 0
1 -41 -46 0
1 -41 -18 0
1 41 -21 0
1 44 37 0
1 -44 22 0
1 44 -23 0
1 44 41 0
1 -44 -18 0
1 44 20 0
1 44 21 0
1 -40 42 0
1 -40 20 0
1 42 -22 0
1 42 40 0
1 42 23 0
1 42 21 0
1 18 -26 0
1 -18 -43 0
1 18 8 0
1 -18 -9 0
1 18 35 0
1 18 45 0
1 18 3 0
1 18 4 0
1 17 -26 0
1 17 32 0
1 -17 -41 0
1 -17 -18 0
1 -17 44 0
1 -17 47 0
1 17 3 0
1 -17 4 0
1 -46 16 0
1 -46 37 0
1 -46 41 0
1 46 43 0
1 46 -48 0
1 46 19 0
1 -46 14 0
1 46 34 0
1 46 -44 0
1 -46 -45 0
1 -46 24 0
1 37 16 0
1 -37 -31 0
1 -37 -26 0
1 -37 -41 0
1 37 -48 0
1 -37 -19 0
1 37 9 0
1 37 45 0
1 -37 24 0
1 48 37 0
1 48 39 0
1 48 -20 0
1 48 -45 0
1 -48 -36 0
1 -45 37 0
1 45 17 0
1 -45 22 0
1 -45 -33 0
1 -45 -46 0
1 45 20 0
1 45 38 0
1 -45 -36 0
1 43 -17 0
1 43 -22 0
1 43 46 0
1 43 -18 0
1 -43 20 0
1 43 47 0
1 47 37 0
1 -47 -22 0
1 47 43 0
1 -47 -46 0
1 -47 18 0
1 33 11 0
1 -33 14 0
1 33 -45 0
1 -33 -24 0
1 -36 -16 0
1 36 -48 0
1 -36 19 0
1 -36 33 0
1 -36 -9 0
1 -36 -10 0
1 36 -45 0
1 36 -24 0
1 -39 16 0
1 39 -27 0
1 39 -48 0
1 39 19 0
1 -39 14 0
1 -39 24 0
1 38 -27 0
1 38 48 0
1 -38 39 0
1 -38 19 0
1 -38 -14 0
1 -38 -30 0
1 -38 24 0
1 38 -45 0
1 -14 -16 0
1 -14 37 0
1 -14 39 0
1 14 -33 0
1 -14 8 0
1 14 46 0
1 16 -14 0
1 -16 46 0
1 -19 -33 0
1 -19 -46 0
1 -24 -37 0
1 24 39 0
1 24 -46 0
1 -24 -3 0
1 -24 38 0
1 -24 -36 0
